* Signature: 0x3fd1861e4d2f9771
NAME lp_typeD_051
OBJSENSE MAX
ROWS
 N  OBJ
 L  c0      
 L  c1      
 L  c2      
 G  c3      
 G  c4      
 G  c5      
 L  c_key_upper
 G  c_key_lower
 G  _chain_constr_1
 G  _chain_constr_2
 G  _chain_constr_3
 G  _chain_constr_4
 G  _chain_cycle
COLUMNS
    x0        OBJ       1.1933258299691638e+00
    x0        c0        1.2676972287043042e+00
    x0        c1        1.3950297440120096e+00
    x0        c2        1.9214276662566505e+00
    x0        c3        7.4001233091151986e-01
    x0        c4        5.0101468605194621e-01
    x0        c5        0.721823585322438
    x0        c_key_upper  1.0655425148573179e+00
    x0        c_key_lower  1.0655425148573179e+00
    x1        OBJ       1.1684187198320841e+00
    x1        c0        5.9218220937440447e-01
    x1        c1        1.8711172007058836e+00
    x1        c2        1.0138996997481418e+00
    x1        c3        1.5322412945731596e+00
    x1        c4        5.7512110594041865e-01
    x1        c5        1.2762775101471229e+00
    x1        c_key_upper  1.2378565866343427e+00
    x1        c_key_lower  1.2378565866343427e+00
    x2        OBJ       8.7064981229446248e-01
    x2        c0        1.4958871792059594e+00
    x2        c1        1.6748977501897140e+00
    x2        c2        1.0697131457640627e+00
    x2        c3        5.1559963795189789e-01
    x2        c4        0.567856190095408
    x2        c5        1.6202481921467553e+00
    x2        c_key_upper  1.7036838054498613e+00
    x2        c_key_lower  1.7036838054498613e+00
    x3        OBJ       8.4555644043416045e-01
    x3        c0        7.1644937255317265e-01
    x3        c1        1.6574262149123418e+00
    x3        c2        1.2783974213877152e+00
    x3        c3        1.8640016456152004e+00
    x3        c4        1.2922528725536382e+00
    x3        c5        8.1128821301796961e-01
    x3        c_key_upper  1.2409653007529151e+00
    x3        c_key_lower  1.2409653007529151e+00
    x4        OBJ       0.720795457865325
    x4        c0        1.9318443916437069e+00
    x4        c1        1.3298945618160753e+00
    x4        c2        6.2486461535224991e-01
    x4        c3        1.7115399504924009e+00
    x4        c4        1.5128045856991874e+00
    x4        c5        7.3337488532145478e-01
    x4        c_key_upper  1.5438272157675004e+00
    x4        c_key_lower  1.5438272157675004e+00
    _chain_var_0  _chain_constr_1  -1
    _chain_var_0  _chain_cycle  1
    _chain_var_1  _chain_constr_1  1
    _chain_var_1  _chain_constr_2  -1
    _chain_var_2  _chain_constr_2  1
    _chain_var_2  _chain_constr_3  -1
    _chain_var_3  _chain_constr_3  1
    _chain_var_3  _chain_constr_4  -1
    _chain_var_4  _chain_constr_4  1
    _chain_var_4  _chain_cycle  -1
RHS
    RHS1      c0        3.3263727641314624e+01
    RHS1      c1        3.4244557433684491e+01
    RHS1      c2        2.9514970124396356e+01
    RHS1      c3        9.1784112296541540e+00
    RHS1      c4        7.8796000938441173e+00
    RHS1      c5        8.45678881526741
    RHS1      c_key_upper  3.3959377117309693e+01
    RHS1      c_key_lower  1.6979688558654846e+01
    RHS1      _chain_constr_1  10
    RHS1      _chain_constr_2  10
    RHS1      _chain_constr_3  10
    RHS1      _chain_constr_4  10
    RHS1      _chain_cycle  10
BOUNDS
 UP BND1      x0        10
 UP BND1      x1        10
 UP BND1      x2        10
 UP BND1      x3        10
 UP BND1      x4        10
 UP BND1      _chain_var_0  100
 UP BND1      _chain_var_1  100
 UP BND1      _chain_var_2  100
 UP BND1      _chain_var_3  100
 UP BND1      _chain_var_4  100
ENDATA
